c x : [2, 3, 4, 5]
c y : [6, 7, 8, 9]
p cnf 119 524
-1 0
-2 -3 -4 -5 0
-6 -7 -8 -9 0
14 0
2 -6 14 -10 0
2 6 -14 -10 0
2 6 14 10 0
2 -6 -14 10 0
-2 -6 14 10 0
-2 6 -14 10 0
-2 6 14 -10 0
-2 -6 -14 -10 0
2 -6 -15 0
2 14 -15 0
2 6 -14 15 0
-2 -6 14 -15 0
-2 6 15 0
-2 -14 15 0
3 -7 15 -11 0
3 7 -15 -11 0
3 7 15 11 0
3 -7 -15 11 0
-3 -7 15 11 0
-3 7 -15 11 0
-3 7 15 -11 0
-3 -7 -15 -11 0
3 -7 -16 0
3 15 -16 0
3 7 -15 16 0
-3 -7 15 -16 0
-3 7 16 0
-3 -15 16 0
4 -8 16 -12 0
4 8 -16 -12 0
4 8 16 12 0
4 -8 -16 12 0
-4 -8 16 12 0
-4 8 -16 12 0
-4 8 16 -12 0
-4 -8 -16 -12 0
4 -8 -17 0
4 16 -17 0
4 8 -16 17 0
-4 -8 16 -17 0
-4 8 17 0
-4 -16 17 0
5 -9 17 -13 0
5 9 -17 -13 0
5 9 17 13 0
5 -9 -17 13 0
-5 -9 17 13 0
-5 9 -17 13 0
-5 9 17 -13 0
-5 -9 -17 -13 0
-18 0
-19 0
-20 0
-21 0
26 0
18 -10 26 -22 0
18 10 -26 -22 0
18 10 26 22 0
18 -10 -26 22 0
-18 -10 26 22 0
-18 10 -26 22 0
-18 10 26 -22 0
-18 -10 -26 -22 0
18 -10 -27 0
18 26 -27 0
18 10 -26 27 0
-18 -10 26 -27 0
-18 10 27 0
-18 -26 27 0
19 -11 27 -23 0
19 11 -27 -23 0
19 11 27 23 0
19 -11 -27 23 0
-19 -11 27 23 0
-19 11 -27 23 0
-19 11 27 -23 0
-19 -11 -27 -23 0
19 -11 -28 0
19 27 -28 0
19 11 -27 28 0
-19 -11 27 -28 0
-19 11 28 0
-19 -27 28 0
20 -12 28 -24 0
20 12 -28 -24 0
20 12 28 24 0
20 -12 -28 24 0
-20 -12 28 24 0
-20 12 -28 24 0
-20 12 28 -24 0
-20 -12 -28 -24 0
20 -12 -29 0
20 28 -29 0
20 12 -28 29 0
-20 -12 28 -29 0
-20 12 29 0
-20 -28 29 0
21 -13 29 -25 0
21 13 -29 -25 0
21 13 29 25 0
21 -13 -29 25 0
-21 -13 29 25 0
-21 13 -29 25 0
-21 13 29 -25 0
-21 -13 -29 -25 0
-30 -31 0
32 0
-33 0
-34 0
-35 0
-18 -30 36 0
18 -36 0
30 -36 0
-19 -30 37 0
19 -37 0
30 -37 0
-20 -30 38 0
20 -38 0
30 -38 0
-21 -30 39 0
21 -39 0
30 -39 0
-32 30 40 0
32 -40 0
-30 -40 0
-33 30 41 0
33 -41 0
-30 -41 0
-34 30 42 0
34 -42 0
-30 -42 0
-35 30 43 0
35 -43 0
-30 -43 0
36 40 -44 0
-36 44 0
-40 44 0
37 41 -45 0
-37 45 0
-41 45 0
38 42 -46 0
-38 46 0
-42 46 0
39 43 -47 0
-39 47 0
-43 47 0
44 18 1 -48 0
44 -18 -1 -48 0
44 -18 1 48 0
44 18 -1 48 0
-44 18 1 48 0
-44 -18 -1 48 0
-44 -18 1 -48 0
-44 18 -1 -48 0
44 18 -52 0
44 1 -52 0
44 -18 -1 52 0
-44 18 1 -52 0
-44 -18 52 0
-44 -1 52 0
45 19 52 -49 0
45 -19 -52 -49 0
45 -19 52 49 0
45 19 -52 49 0
-45 19 52 49 0
-45 -19 -52 49 0
-45 -19 52 -49 0
-45 19 -52 -49 0
45 19 -53 0
45 52 -53 0
45 -19 -52 53 0
-45 19 52 -53 0
-45 -19 53 0
-45 -52 53 0
46 20 53 -50 0
46 -20 -53 -50 0
46 -20 53 50 0
46 20 -53 50 0
-46 20 53 50 0
-46 -20 -53 50 0
-46 -20 53 -50 0
-46 20 -53 -50 0
46 20 -54 0
46 53 -54 0
46 -20 -53 54 0
-46 20 53 -54 0
-46 -20 54 0
-46 -53 54 0
47 21 54 -51 0
47 -21 -54 -51 0
47 -21 54 51 0
47 21 -54 51 0
-47 21 54 51 0
-47 -21 -54 51 0
-47 -21 54 -51 0
-47 21 -54 -51 0
47 21 -1 0
47 54 -1 0
47 -21 -54 1 0
-47 21 54 -1 0
-47 -21 1 0
-47 -54 1 0
-18 -31 55 0
18 -55 0
31 -55 0
-19 -31 56 0
19 -56 0
31 -56 0
-20 -31 57 0
20 -57 0
31 -57 0
-21 -31 58 0
21 -58 0
31 -58 0
-32 31 59 0
32 -59 0
-31 -59 0
-33 31 60 0
33 -60 0
-31 -60 0
-34 31 61 0
34 -61 0
-31 -61 0
-35 31 62 0
35 -62 0
-31 -62 0
55 59 -63 0
-55 63 0
-59 63 0
56 60 -64 0
-56 64 0
-60 64 0
57 61 -65 0
-57 65 0
-61 65 0
58 62 -66 0
-58 66 0
-62 66 0
48 63 1 -67 0
48 -63 -1 -67 0
48 -63 1 67 0
48 63 -1 67 0
-48 63 1 67 0
-48 -63 -1 67 0
-48 -63 1 -67 0
-48 63 -1 -67 0
48 63 -71 0
48 1 -71 0
48 -63 -1 71 0
-48 63 1 -71 0
-48 -63 71 0
-48 -1 71 0
49 64 71 -68 0
49 -64 -71 -68 0
49 -64 71 68 0
49 64 -71 68 0
-49 64 71 68 0
-49 -64 -71 68 0
-49 -64 71 -68 0
-49 64 -71 -68 0
49 64 -72 0
49 71 -72 0
49 -64 -71 72 0
-49 64 71 -72 0
-49 -64 72 0
-49 -71 72 0
50 65 72 -69 0
50 -65 -72 -69 0
50 -65 72 69 0
50 65 -72 69 0
-50 65 72 69 0
-50 -65 -72 69 0
-50 -65 72 -69 0
-50 65 -72 -69 0
50 65 -73 0
50 72 -73 0
50 -65 -72 73 0
-50 65 72 -73 0
-50 -65 73 0
-50 -72 73 0
51 66 73 -70 0
51 -66 -73 -70 0
51 -66 73 70 0
51 66 -73 70 0
-51 66 73 70 0
-51 -66 -73 70 0
-51 -66 73 -70 0
-51 66 -73 -70 0
51 66 -1 0
51 73 -1 0
51 -66 -73 1 0
-51 66 73 -1 0
-51 -66 1 0
-51 -73 1 0
67 32 -74 0
-67 -32 -74 0
67 -32 74 0
-67 32 74 0
68 33 -75 0
-68 -33 -75 0
68 -33 75 0
-68 33 75 0
69 34 -76 0
-69 -34 -76 0
69 -34 76 0
-69 34 76 0
70 35 -77 0
-70 -35 -77 0
70 -35 77 0
-70 35 77 0
74 75 76 77 -1 0
-74 1 0
-75 1 0
-76 1 0
-77 1 0
-18 -30 78 0
18 -78 0
30 -78 0
-19 -30 79 0
19 -79 0
30 -79 0
-20 -30 80 0
20 -80 0
30 -80 0
-21 -30 81 0
21 -81 0
30 -81 0
-10 30 82 0
10 -82 0
-30 -82 0
-11 30 83 0
11 -83 0
-30 -83 0
-12 30 84 0
12 -84 0
-30 -84 0
-13 30 85 0
13 -85 0
-30 -85 0
78 82 -86 0
-78 86 0
-82 86 0
79 83 -87 0
-79 87 0
-83 87 0
80 84 -88 0
-80 88 0
-84 88 0
81 85 -89 0
-81 89 0
-85 89 0
86 18 1 -90 0
86 -18 -1 -90 0
86 -18 1 90 0
86 18 -1 90 0
-86 18 1 90 0
-86 -18 -1 90 0
-86 -18 1 -90 0
-86 18 -1 -90 0
86 18 -94 0
86 1 -94 0
86 -18 -1 94 0
-86 18 1 -94 0
-86 -18 94 0
-86 -1 94 0
87 19 94 -91 0
87 -19 -94 -91 0
87 -19 94 91 0
87 19 -94 91 0
-87 19 94 91 0
-87 -19 -94 91 0
-87 -19 94 -91 0
-87 19 -94 -91 0
87 19 -95 0
87 94 -95 0
87 -19 -94 95 0
-87 19 94 -95 0
-87 -19 95 0
-87 -94 95 0
88 20 95 -92 0
88 -20 -95 -92 0
88 -20 95 92 0
88 20 -95 92 0
-88 20 95 92 0
-88 -20 -95 92 0
-88 -20 95 -92 0
-88 20 -95 -92 0
88 20 -96 0
88 95 -96 0
88 -20 -95 96 0
-88 20 95 -96 0
-88 -20 96 0
-88 -95 96 0
89 21 96 -93 0
89 -21 -96 -93 0
89 -21 96 93 0
89 21 -96 93 0
-89 21 96 93 0
-89 -21 -96 93 0
-89 -21 96 -93 0
-89 21 -96 -93 0
89 21 -1 0
89 96 -1 0
89 -21 -96 1 0
-89 21 96 -1 0
-89 -21 1 0
-89 -96 1 0
-18 -31 97 0
18 -97 0
31 -97 0
-19 -31 98 0
19 -98 0
31 -98 0
-20 -31 99 0
20 -99 0
31 -99 0
-21 -31 100 0
21 -100 0
31 -100 0
-22 31 101 0
22 -101 0
-31 -101 0
-23 31 102 0
23 -102 0
-31 -102 0
-24 31 103 0
24 -103 0
-31 -103 0
-25 31 104 0
25 -104 0
-31 -104 0
97 101 -105 0
-97 105 0
-101 105 0
98 102 -106 0
-98 106 0
-102 106 0
99 103 -107 0
-99 107 0
-103 107 0
100 104 -108 0
-100 108 0
-104 108 0
90 105 1 -109 0
90 -105 -1 -109 0
90 -105 1 109 0
90 105 -1 109 0
-90 105 1 109 0
-90 -105 -1 109 0
-90 -105 1 -109 0
-90 105 -1 -109 0
90 105 -113 0
90 1 -113 0
90 -105 -1 113 0
-90 105 1 -113 0
-90 -105 113 0
-90 -1 113 0
91 106 113 -110 0
91 -106 -113 -110 0
91 -106 113 110 0
91 106 -113 110 0
-91 106 113 110 0
-91 -106 -113 110 0
-91 -106 113 -110 0
-91 106 -113 -110 0
91 106 -114 0
91 113 -114 0
91 -106 -113 114 0
-91 106 113 -114 0
-91 -106 114 0
-91 -113 114 0
92 107 114 -111 0
92 -107 -114 -111 0
92 -107 114 111 0
92 107 -114 111 0
-92 107 114 111 0
-92 -107 -114 111 0
-92 -107 114 -111 0
-92 107 -114 -111 0
92 107 -115 0
92 114 -115 0
92 -107 -114 115 0
-92 107 114 -115 0
-92 -107 115 0
-92 -114 115 0
93 108 115 -112 0
93 -108 -115 -112 0
93 -108 115 112 0
93 108 -115 112 0
-93 108 115 112 0
-93 -108 -115 112 0
-93 -108 115 -112 0
-93 108 -115 -112 0
93 108 -1 0
93 115 -1 0
93 -108 -115 1 0
-93 108 115 -1 0
-93 -108 1 0
-93 -115 1 0
109 32 -116 0
-109 -32 -116 0
109 -32 116 0
-109 32 116 0
110 33 -117 0
-110 -33 -117 0
110 -33 117 0
-110 33 117 0
111 34 -118 0
-111 -34 -118 0
111 -34 118 0
-111 34 118 0
112 35 -119 0
-112 -35 -119 0
112 -35 119 0
-112 35 119 0
116 117 118 119 -1 0
-116 1 0
-117 1 0
-118 1 0
-119 1 0
1 2 3 4 5 -6 7 8 9 -10 -11 -12 -13 -14 15 16 17 18 19 20 21 -22 23 24 25 -26 27 28 29 -30 31 -32 33 34 35 36 37 38 39 40 41 42 43 44 45 46 47 48 49 50 51 52 53 54 55 56 57 58 -59 60 61 62 -63 64 65 66 -67 68 69 70 71 72 73 74 75 76 77 78 79 80 81 82 83 84 85 86 87 88 89 90 91 92 93 94 95 96 97 98 99 100 -101 102 103 104 -105 106 107 108 -109 110 111 112 113 114 115 116 117 118 119 0
1 -2 3 4 5 6 7 8 9 -10 11 12 13 -14 -15 -16 -17 18 19 20 21 -22 -23 -24 -25 -26 27 28 29 30 -31 -32 33 34 35 36 37 38 39 -40 41 42 43 -44 45 46 47 -48 49 50 51 52 53 54 55 56 57 58 59 60 61 62 63 64 65 66 -67 68 69 70 71 72 73 74 75 76 77 78 79 80 81 -82 83 84 85 -86 87 88 89 -90 91 92 93 94 95 96 97 98 99 100 101 102 103 104 105 106 107 108 -109 110 111 112 113 114 115 116 117 118 119 0
1 2 -3 4 5 -6 7 8 9 -10 11 12 13 -14 15 -16 -17 18 19 20 21 -22 -23 -24 -25 -26 27 28 29 30 -31 -32 33 34 35 36 37 38 39 -40 41 42 43 -44 45 46 47 -48 49 50 51 52 53 54 55 56 57 58 59 60 61 62 63 64 65 66 -67 68 69 70 71 72 73 74 75 76 77 78 79 80 81 -82 83 84 85 -86 87 88 89 -90 91 92 93 94 95 96 97 98 99 100 101 102 103 104 105 106 107 108 -109 110 111 112 113 114 115 116 117 118 119 0
1 2 3 4 -5 -6 7 8 -9 -10 -11 -12 -13 -14 15 16 17 18 19 20 21 -22 23 24 25 -26 27 28 29 -30 31 -32 33 34 35 36 37 38 39 40 41 42 43 44 45 46 47 48 49 50 51 52 53 54 55 56 57 58 -59 60 61 62 -63 64 65 66 -67 68 69 70 71 72 73 74 75 76 77 78 79 80 81 82 83 84 85 86 87 88 89 90 91 92 93 94 95 96 97 98 99 100 -101 102 103 104 -105 106 107 108 -109 110 111 112 113 114 115 116 117 118 119 0
1 2 -3 4 5 -6 -7 8 9 -10 -11 -12 -13 -14 15 16 17 18 19 20 21 -22 23 24 25 -26 27 28 29 -30 31 -32 33 34 35 36 37 38 39 40 41 42 43 44 45 46 47 48 49 50 51 52 53 54 55 56 57 58 -59 60 61 62 -63 64 65 66 -67 68 69 70 71 72 73 74 75 76 77 78 79 80 81 82 83 84 85 86 87 88 89 90 91 92 93 94 95 96 97 98 99 100 -101 102 103 104 -105 106 107 108 -109 110 111 112 113 114 115 116 117 118 119 0
1 -2 -3 4 5 6 7 -8 9 -10 -11 -12 -13 -14 -15 -16 17 18 19 20 21 -22 23 24 25 -26 27 28 29 -30 31 -32 33 34 35 36 37 38 39 40 41 42 43 44 45 46 47 48 49 50 51 52 53 54 55 56 57 58 -59 60 61 62 -63 64 65 66 -67 68 69 70 71 72 73 74 75 76 77 78 79 80 81 82 83 84 85 86 87 88 89 90 91 92 93 94 95 96 97 98 99 100 -101 102 103 104 -105 106 107 108 -109 110 111 112 113 114 115 116 117 118 119 0
1 -2 3 4 5 6 -7 8 9 -10 -11 -12 -13 -14 -15 16 17 18 19 20 21 -22 23 24 25 -26 27 28 29 -30 31 -32 33 34 35 36 37 38 39 40 41 42 43 44 45 46 47 48 49 50 51 52 53 54 55 56 57 58 -59 60 61 62 -63 64 65 66 -67 68 69 70 71 72 73 74 75 76 77 78 79 80 81 82 83 84 85 86 87 88 89 90 91 92 93 94 95 96 97 98 99 100 -101 102 103 104 -105 106 107 108 -109 110 111 112 113 114 115 116 117 118 119 0
1 2 3 -4 5 -6 -7 8 9 -10 11 12 13 -14 15 16 -17 18 19 20 21 -22 -23 -24 -25 -26 27 28 29 30 -31 -32 33 34 35 36 37 38 39 -40 41 42 43 -44 45 46 47 -48 49 50 51 52 53 54 55 56 57 58 59 60 61 62 63 64 65 66 -67 68 69 70 71 72 73 74 75 76 77 78 79 80 81 -82 83 84 85 -86 87 88 89 -90 91 92 93 94 95 96 97 98 99 100 101 102 103 104 105 106 107 108 -109 110 111 112 113 114 115 116 117 118 119 0
1 -2 -3 4 5 6 -7 8 9 -10 11 12 13 -14 -15 -16 -17 18 19 20 21 -22 -23 -24 -25 -26 27 28 29 30 -31 -32 33 34 35 36 37 38 39 -40 41 42 43 -44 45 46 47 -48 49 50 51 52 53 54 55 56 57 58 59 60 61 62 63 64 65 66 -67 68 69 70 71 72 73 74 75 76 77 78 79 80 81 -82 83 84 85 -86 87 88 89 -90 91 92 93 94 95 96 97 98 99 100 101 102 103 104 105 106 107 108 -109 110 111 112 113 114 115 116 117 118 119 0
1 2 3 -4 5 -6 7 -8 9 -10 -11 -12 -13 -14 15 16 17 18 19 20 21 -22 23 24 25 -26 27 28 29 -30 31 -32 33 34 35 36 37 38 39 40 41 42 43 44 45 46 47 48 49 50 51 52 53 54 55 56 57 58 -59 60 61 62 -63 64 65 66 -67 68 69 70 71 72 73 74 75 76 77 78 79 80 81 82 83 84 85 86 87 88 89 90 91 92 93 94 95 96 97 98 99 100 -101 102 103 104 -105 106 107 108 -109 110 111 112 113 114 115 116 117 118 119 0
1 -2 3 4 -5 6 -7 8 -9 -10 -11 -12 -13 -14 -15 16 17 18 19 20 21 -22 23 24 25 -26 27 28 29 -30 31 -32 33 34 35 36 37 38 39 40 41 42 43 44 45 46 47 48 49 50 51 52 53 54 55 56 57 58 -59 60 61 62 -63 64 65 66 -67 68 69 70 71 72 73 74 75 76 77 78 79 80 81 82 83 84 85 86 87 88 89 90 91 92 93 94 95 96 97 98 99 100 -101 102 103 104 -105 106 107 108 -109 110 111 112 113 114 115 116 117 118 119 0
1 2 -3 -4 5 -6 -7 -8 9 -10 -11 -12 -13 -14 15 16 17 18 19 20 21 -22 23 24 25 -26 27 28 29 -30 31 -32 33 34 35 36 37 38 39 40 41 42 43 44 45 46 47 48 49 50 51 52 53 54 55 56 57 58 -59 60 61 62 -63 64 65 66 -67 68 69 70 71 72 73 74 75 76 77 78 79 80 81 82 83 84 85 86 87 88 89 90 91 92 93 94 95 96 97 98 99 100 -101 102 103 104 -105 106 107 108 -109 110 111 112 113 114 115 116 117 118 119 0
1 -2 3 4 -5 6 7 8 -9 -10 11 12 13 -14 -15 -16 -17 18 19 20 21 -22 -23 -24 -25 -26 27 28 29 30 -31 -32 33 34 35 36 37 38 39 -40 41 42 43 -44 45 46 47 -48 49 50 51 52 53 54 55 56 57 58 59 60 61 62 63 64 65 66 -67 68 69 70 71 72 73 74 75 76 77 78 79 80 81 -82 83 84 85 -86 87 88 89 -90 91 92 93 94 95 96 97 98 99 100 101 102 103 104 105 106 107 108 -109 110 111 112 113 114 115 116 117 118 119 0
1 -2 -3 4 -5 6 -7 8 -9 -10 11 12 13 -14 -15 -16 -17 18 19 20 21 -22 -23 -24 -25 -26 27 28 29 30 -31 -32 33 34 35 36 37 38 39 -40 41 42 43 -44 45 46 47 -48 49 50 51 52 53 54 55 56 57 58 59 60 61 62 63 64 65 66 -67 68 69 70 71 72 73 74 75 76 77 78 79 80 81 -82 83 84 85 -86 87 88 89 -90 91 92 93 94 95 96 97 98 99 100 101 102 103 104 105 106 107 108 -109 110 111 112 113 114 115 116 117 118 119 0
1 -2 3 -4 5 6 -7 -8 9 -10 -11 -12 -13 -14 -15 16 17 18 19 20 21 -22 23 24 25 -26 27 28 29 -30 31 -32 33 34 35 36 37 38 39 40 41 42 43 44 45 46 47 48 49 50 51 52 53 54 55 56 57 58 -59 60 61 62 -63 64 65 66 -67 68 69 70 71 72 73 74 75 76 77 78 79 80 81 82 83 84 85 86 87 88 89 90 91 92 93 94 95 96 97 98 99 100 -101 102 103 104 -105 106 107 108 -109 110 111 112 113 114 115 116 117 118 119 0
1 -2 -3 -4 5 6 7 8 -9 -10 -11 -12 -13 -14 -15 -16 -17 18 19 20 21 -22 23 24 25 -26 27 28 29 -30 31 -32 33 34 35 36 37 38 39 40 41 42 43 44 45 46 47 48 49 50 51 52 53 54 55 56 57 58 -59 60 61 62 -63 64 65 66 -67 68 69 70 71 72 73 74 75 76 77 78 79 80 81 82 83 84 85 86 87 88 89 90 91 92 93 94 95 96 97 98 99 100 -101 102 103 104 -105 106 107 108 -109 110 111 112 113 114 115 116 117 118 119 0
1 -2 3 -4 5 6 7 -8 9 -10 11 12 13 -14 -15 -16 -17 18 19 20 21 -22 -23 -24 -25 -26 27 28 29 30 -31 -32 33 34 35 36 37 38 39 -40 41 42 43 -44 45 46 47 -48 49 50 51 52 53 54 55 56 57 58 59 60 61 62 63 64 65 66 -67 68 69 70 71 72 73 74 75 76 77 78 79 80 81 -82 83 84 85 -86 87 88 89 -90 91 92 93 94 95 96 97 98 99 100 101 102 103 104 105 106 107 108 -109 110 111 112 113 114 115 116 117 118 119 0
1 2 -3 4 -5 -6 7 8 -9 -10 11 12 13 -14 15 -16 -17 18 19 20 21 -22 -23 -24 -25 -26 27 28 29 30 -31 -32 33 34 35 36 37 38 39 -40 41 42 43 -44 45 46 47 -48 49 50 51 52 53 54 55 56 57 58 59 60 61 62 63 64 65 66 -67 68 69 70 71 72 73 74 75 76 77 78 79 80 81 -82 83 84 85 -86 87 88 89 -90 91 92 93 94 95 96 97 98 99 100 101 102 103 104 105 106 107 108 -109 110 111 112 113 114 115 116 117 118 119 0
1 2 3 4 -5 -6 -7 -8 9 -10 11 12 13 -14 15 16 17 18 19 20 21 -22 -23 -24 -25 -26 27 28 29 30 -31 -32 33 34 35 36 37 38 39 -40 41 42 43 -44 45 46 47 -48 49 50 51 52 53 54 55 56 57 58 59 60 61 62 63 64 65 66 -67 68 69 70 71 72 73 74 75 76 77 78 79 80 81 -82 83 84 85 -86 87 88 89 -90 91 92 93 94 95 96 97 98 99 100 101 102 103 104 105 106 107 108 -109 110 111 112 113 114 115 116 117 118 119 0
1 2 -3 4 -5 -6 -7 8 -9 -10 -11 -12 -13 -14 15 16 17 18 19 20 21 -22 23 24 25 -26 27 28 29 -30 31 -32 33 34 35 36 37 38 39 40 41 42 43 44 45 46 47 48 49 50 51 52 53 54 55 56 57 58 -59 60 61 62 -63 64 65 66 -67 68 69 70 71 72 73 74 75 76 77 78 79 80 81 82 83 84 85 86 87 88 89 90 91 92 93 94 95 96 97 98 99 100 -101 102 103 104 -105 106 107 108 -109 110 111 112 113 114 115 116 117 118 119 0
1 -2 3 -4 -5 6 -7 -8 -9 -10 -11 -12 -13 -14 -15 16 17 18 19 20 21 -22 23 24 25 -26 27 28 29 -30 31 -32 33 34 35 36 37 38 39 40 41 42 43 44 45 46 47 48 49 50 51 52 53 54 55 56 57 58 -59 60 61 62 -63 64 65 66 -67 68 69 70 71 72 73 74 75 76 77 78 79 80 81 82 83 84 85 86 87 88 89 90 91 92 93 94 95 96 97 98 99 100 -101 102 103 104 -105 106 107 108 -109 110 111 112 113 114 115 116 117 118 119 0
1 2 3 -4 -5 -6 -7 8 -9 -10 11 12 13 -14 15 16 -17 18 19 20 21 -22 -23 -24 -25 -26 27 28 29 30 -31 -32 33 34 35 36 37 38 39 -40 41 42 43 -44 45 46 47 -48 49 50 51 52 53 54 55 56 57 58 59 60 61 62 63 64 65 66 -67 68 69 70 71 72 73 74 75 76 77 78 79 80 81 -82 83 84 85 -86 87 88 89 -90 91 92 93 94 95 96 97 98 99 100 101 102 103 104 105 106 107 108 -109 110 111 112 113 114 115 116 117 118 119 0
1 2 3 -4 -5 -6 7 -8 -9 -10 -11 -12 -13 -14 15 16 17 18 19 20 21 -22 23 24 25 -26 27 28 29 -30 31 -32 33 34 35 36 37 38 39 40 41 42 43 44 45 46 47 48 49 50 51 52 53 54 55 56 57 58 -59 60 61 62 -63 64 65 66 -67 68 69 70 71 72 73 74 75 76 77 78 79 80 81 82 83 84 85 86 87 88 89 90 91 92 93 94 95 96 97 98 99 100 -101 102 103 104 -105 106 107 108 -109 110 111 112 113 114 115 116 117 118 119 0
1 -2 3 -4 -5 6 7 -8 -9 -10 11 12 13 -14 -15 -16 -17 18 19 20 21 -22 -23 -24 -25 -26 27 28 29 30 -31 -32 33 34 35 36 37 38 39 -40 41 42 43 -44 45 46 47 -48 49 50 51 52 53 54 55 56 57 58 59 60 61 62 63 64 65 66 -67 68 69 70 71 72 73 74 75 76 77 78 79 80 81 -82 83 84 85 -86 87 88 89 -90 91 92 93 94 95 96 97 98 99 100 101 102 103 104 105 106 107 108 -109 110 111 112 113 114 115 116 117 118 119 0
1 -2 -3 -4 5 6 -7 -8 9 -10 11 12 13 -14 -15 -16 -17 18 19 20 21 -22 -23 -24 -25 -26 27 28 29 30 -31 -32 33 34 35 36 37 38 39 -40 41 42 43 -44 45 46 47 -48 49 50 51 52 53 54 55 56 57 58 59 60 61 62 63 64 65 66 -67 68 69 70 71 72 73 74 75 76 77 78 79 80 81 -82 83 84 85 -86 87 88 89 -90 91 92 93 94 95 96 97 98 99 100 101 102 103 104 105 106 107 108 -109 110 111 112 113 114 115 116 117 118 119 0
1 2 -3 -4 5 -6 7 -8 9 -10 11 12 13 -14 15 -16 -17 18 19 20 21 -22 -23 -24 -25 -26 27 28 29 30 -31 -32 33 34 35 36 37 38 39 -40 41 42 43 -44 45 46 47 -48 49 50 51 52 53 54 55 56 57 58 59 60 61 62 63 64 65 66 -67 68 69 70 71 72 73 74 75 76 77 78 79 80 81 -82 83 84 85 -86 87 88 89 -90 91 92 93 94 95 96 97 98 99 100 101 102 103 104 105 106 107 108 -109 110 111 112 113 114 115 116 117 118 119 0
1 2 -3 -4 -5 -6 7 -8 -9 -10 11 12 13 -14 15 -16 -17 18 19 20 21 -22 -23 -24 -25 -26 27 28 29 30 -31 -32 33 34 35 36 37 38 39 -40 41 42 43 -44 45 46 47 -48 49 50 51 52 53 54 55 56 57 58 59 60 61 62 63 64 65 66 -67 68 69 70 71 72 73 74 75 76 77 78 79 80 81 -82 83 84 85 -86 87 88 89 -90 91 92 93 94 95 96 97 98 99 100 101 102 103 104 105 106 107 108 -109 110 111 112 113 114 115 116 117 118 119 0
1 -2 -3 4 -5 6 7 -8 -9 -10 -11 -12 -13 -14 -15 -16 17 18 19 20 21 -22 23 24 25 -26 27 28 29 -30 31 -32 33 34 35 36 37 38 39 40 41 42 43 44 45 46 47 48 49 50 51 52 53 54 55 56 57 58 -59 60 61 62 -63 64 65 66 -67 68 69 70 71 72 73 74 75 76 77 78 79 80 81 82 83 84 85 86 87 88 89 90 91 92 93 94 95 96 97 98 99 100 -101 102 103 104 -105 106 107 108 -109 110 111 112 113 114 115 116 117 118 119 0
